3 40 1 10
1 17 7 17 11 5 1 9 18 15 9 4 11 1 20 10 19 2 15 9 15 20 17 1 13 11 13 19 18 18 3 14 20 13 6 3 5 14 13 20 
4.46 6.85 4.37 2.13 6.97 5.23 0.05 0.58 1.22 7.39 1.55 0.22 4.42 1.49 2.89 0.39 5.18 2.68 3.35 0.08 0.2 3.54 6.32 5.09 4.03 1.68 3.14 2.28 2.24 4.44 6.94 3.38 5.01 1.28 0.79 6.53 3.17 3.68 7.92 2.66 
4 4 4 4 4 4 4 4 4 4 4 4 4 4 4 4 4 4 4 4 4 4 4 4 4 4 4 4 4 4 4 4 4 4 4 4 4 4 4 4 
2.02 6.49 0.96 2.05 0.55 5.72 0.55 1.55 0.31 1.12 3.74 2.09 7.25 6.05 7.58 3.59 7.25 5.31 3.06 2.88 5.49 6.49 0.48 0.02 6.17 6.11 2.21 5.57 5.25 4.47 2.31 0.67 3.91 7.4 3.69 6.89 4.88 6.3 2.61 5.96 
1 1 1 1 1 1 1 1 1 1 1 1 1 1 1 1 1 1 1 1 1 1 1 1 1 1 1 1 1 1 1 1 1 1 1 1 1 1 1 1 
1 1 1 1 1 1 1 1 1 1 1 1 1 1 1 1 1 1 1 1 1 1 1 1 1 1 1 1 1 1 1 1 1 1 1 1 1 1 1 1 
1 1 1 1 1 1 1 1 1 1 1 1 1 1 1 1 1 1 1 1 1 1 1 1 1 1 1 1 1 1 1 1 1 1 1 1 1 1 1 1 
0.01 0.01 0.01 0.01 0.01 0.01 0.01 0.01 0.01 0.01 0.01 0.01 0.01 0.01 0.01 0.01 0.01 0.01 0.01 0.01 0.01 0.01 0.01 0.01 0.01 0.01 0.01 0.01 0.01 0.01 0.01 0.01 0.01 0.01 0.01 0.01 0.01 0.01 0.01 0.01 
0.02 0.02 0.02 0.02 0.02 0.02 0.02 0.02 0.02 0.02 0.02 0.02 0.02 0.02 0.02 0.02 0.02 0.02 0.02 0.02 0.02 0.02 0.02 0.02 0.02 0.02 0.02 0.02 0.02 0.02 0.02 0.02 0.02 0.02 0.02 0.02 0.02 0.02 0.02 0.02 
1 1 1 1 1 1 1 1 1 1 1 1 1 1 1 1 1 1 1 1 1 1 1 1 1 1 1 1 1 1 1 1 1 1 1 1 1 1 1 1 
